[ti. 04. april 14:06:54 +0200 2023]  ./input/alternate_g_np/50-1-2.gcc
Set parameter Username
Academic license - for non-commercial use only - expires 2024-03-28
Set parameter TimeLimit to value 1800
Set parameter PreCrush to value 1
Set parameter LazyConstraints to value 1
Gurobi Optimizer version 10.0.1 build v10.0.1rc0 (linux64)

CPU model: AMD Ryzen 9 5950X 16-Core Processor, instruction set [SSE2|AVX|AVX2]
Thread count: 16 physical cores, 32 logical processors, using up to 32 threads

Optimize a model with 52 rows, 150 columns and 350 nonzeros
Model fingerprint: 0x70ec4b8f
Variable types: 0 continuous, 150 integer (150 binary)
Coefficient statistics:
  Matrix range     [1e+00, 1e+00]
  Objective range  [4e+00, 1e+02]
  Bounds range     [1e+00, 1e+00]
  RHS range        [1e+00, 1e+00]
Presolve time: 0.00s
Presolved: 52 rows, 150 columns, 350 nonzeros
Variable types: 0 continuous, 150 integer (150 binary)

Root relaxation: objective 2.764000e+03, 2 iterations, 0.00 seconds (0.00 work units)

    Nodes    |    Current Node    |     Objective Bounds      |     Work
 Expl Unexpl |  Obj  Depth IntInf | Incumbent    BestBd   Gap | It/Node Time

     0     0 2764.00000    0    2          - 2764.00000      -     -    0s
     0     0 2685.00000    0    -          - 2685.00000      -     -    0s
     0     0 2614.00000    0    -          - 2614.00000      -     -    0s
     0     0 2614.00000    0    -          - 2614.00000      -     -    0s
     0     0 2502.00000    0    8          - 2502.00000      -     -    0s
     0     0 1030.00000    0   10          - 1030.00000      -     -    0s
     0     0  917.00000    0    -          -  917.00000      -     -    0s
     0     0  903.00000    0    -          -  903.00000      -     -    0s
     0     0  903.00000    0    -          -  903.00000      -     -    0s
     0     0  871.00000    0   12          -  871.00000      -     -    0s
     0     0  750.00000    0    -          -  750.00000      -     -    0s
     0     0  750.00000    0    -          -  750.00000      -     -    0s
     0     0  748.16667    0   27          -  748.16667      -     -    0s
     0     2  623.44444    0   26          -  623.44444      -     -    0s
H    8    10                     435.0000000  563.00000  29.4%  18.0    0s
*    9    10               3     543.0000000  563.00000  3.68%  19.0    0s
*   10    10               3     563.0000000  563.00000  0.00%  17.2    0s

Cutting planes:
  User: 51
  Lazy constraints: 62

Explored 14 nodes (439 simplex iterations) in 0.02 seconds (0.01 work units)
Thread count was 32 (of 32 available processors)

Solution count 3: 563 543 435 

Optimal solution found (tolerance 1.00e-04)
Best objective 5.630000000000e+02, best bound 5.630000000000e+02, gap 0.0000%

User-callback calls 202, time in user-callback 0.00 sec
Minimal separator inequalities added: 92
Indegree inequalities added: 37
Passed solution check
[ti. 04. april 14:06:54 +0200 2023]  done

